benchmarks/ising_models/Random/J=1/50nodes_5deg_random_graph.wcnf
p wcnf 170 480
w -2 0.367879 0
w 2 2.718282 0
w -3 0.367879 0
w 3 2.718282 0
w -4 0.367879 0
w 4 2.718282 0
w -5 0.367879 0
w 5 2.718282 0
w -7 0.367879 0
w 7 2.718282 0
w -8 0.367879 0
w 8 2.718282 0
w -9 0.367879 0
w 9 2.718282 0
w -10 0.367879 0
w 10 2.718282 0
w -11 0.367879 0
w 11 2.718282 0
w -13 0.367879 0
w 13 2.718282 0
w -14 0.367879 0
w 14 2.718282 0
w -15 0.367879 0
w 15 2.718282 0
w -16 0.367879 0
w 16 2.718282 0
w -17 0.367879 0
w 17 2.718282 0
w -18 0.367879 0
w 18 2.718282 0
w -19 0.367879 0
w 19 2.718282 0
w -20 0.367879 0
w 20 2.718282 0
w -22 0.367879 0
w 22 2.718282 0
w -23 0.367879 0
w 23 2.718282 0
w -24 0.367879 0
w 24 2.718282 0
w -25 0.367879 0
w 25 2.718282 0
w -26 0.367879 0
w 26 2.718282 0
w -27 0.367879 0
w 27 2.718282 0
w -29 0.367879 0
w 29 2.718282 0
w -30 0.367879 0
w 30 2.718282 0
w -31 0.367879 0
w 31 2.718282 0
w -32 0.367879 0
w 32 2.718282 0
w -33 0.367879 0
w 33 2.718282 0
w -34 0.367879 0
w 34 2.718282 0
w -36 0.367879 0
w 36 2.718282 0
w -37 0.367879 0
w 37 2.718282 0
w -38 0.367879 0
w 38 2.718282 0
w -39 0.367879 0
w 39 2.718282 0
w -40 0.367879 0
w 40 2.718282 0
w -42 0.367879 0
w 42 2.718282 0
w -43 0.367879 0
w 43 2.718282 0
w -44 0.367879 0
w 44 2.718282 0
w -45 0.367879 0
w 45 2.718282 0
w -47 0.367879 0
w 47 2.718282 0
w -48 0.367879 0
w 48 2.718282 0
w -49 0.367879 0
w 49 2.718282 0
w -51 0.367879 0
w 51 2.718282 0
w -52 0.367879 0
w 52 2.718282 0
w -53 0.367879 0
w 53 2.718282 0
w -54 0.367879 0
w 54 2.718282 0
w -55 0.367879 0
w 55 2.718282 0
w -56 0.367879 0
w 56 2.718282 0
w -57 0.367879 0
w 57 2.718282 0
w -59 0.367879 0
w 59 2.718282 0
w -60 0.367879 0
w 60 2.718282 0
w -61 0.367879 0
w 61 2.718282 0
w -63 0.367879 0
w 63 2.718282 0
w -64 0.367879 0
w 64 2.718282 0
w -65 0.367879 0
w 65 2.718282 0
w -67 0.367879 0
w 67 2.718282 0
w -68 0.367879 0
w 68 2.718282 0
w -69 0.367879 0
w 69 2.718282 0
w -71 0.367879 0
w 71 2.718282 0
w -72 0.367879 0
w 72 2.718282 0
w -73 0.367879 0
w 73 2.718282 0
w -75 0.367879 0
w 75 2.718282 0
w -76 0.367879 0
w 76 2.718282 0
w -78 0.367879 0
w 78 2.718282 0
w -79 0.367879 0
w 79 2.718282 0
w -80 0.367879 0
w 80 2.718282 0
w -81 0.367879 0
w 81 2.718282 0
w -82 0.367879 0
w 82 2.718282 0
w -84 0.367879 0
w 84 2.718282 0
w -85 0.367879 0
w 85 2.718282 0
w -86 0.367879 0
w 86 2.718282 0
w -87 0.367879 0
w 87 2.718282 0
w -89 0.367879 0
w 89 2.718282 0
w -90 0.367879 0
w 90 2.718282 0
w -91 0.367879 0
w 91 2.718282 0
w -92 0.367879 0
w 92 2.718282 0
w -94 0.367879 0
w 94 2.718282 0
w -95 0.367879 0
w 95 2.718282 0
w -96 0.367879 0
w 96 2.718282 0
w -97 0.367879 0
w 97 2.718282 0
w -99 0.367879 0
w 99 2.718282 0
w -100 0.367879 0
w 100 2.718282 0
w -101 0.367879 0
w 101 2.718282 0
w -103 0.367879 0
w 103 2.718282 0
w -104 0.367879 0
w 104 2.718282 0
w -106 0.367879 0
w 106 2.718282 0
w -107 0.367879 0
w 107 2.718282 0
w -108 0.367879 0
w 108 2.718282 0
w -109 0.367879 0
w 109 2.718282 0
w -111 0.367879 0
w 111 2.718282 0
w -112 0.367879 0
w 112 2.718282 0
w -114 0.367879 0
w 114 2.718282 0
w -115 0.367879 0
w 115 2.718282 0
w -116 0.367879 0
w 116 2.718282 0
w -118 0.367879 0
w 118 2.718282 0
w -120 0.367879 0
w 120 2.718282 0
w -121 0.367879 0
w 121 2.718282 0
w -122 0.367879 0
w 122 2.718282 0
w -125 0.367879 0
w 125 2.718282 0
w -126 0.367879 0
w 126 2.718282 0
w -127 0.367879 0
w 127 2.718282 0
w -128 0.367879 0
w 128 2.718282 0
w -131 0.367879 0
w 131 2.718282 0
w -133 0.367879 0
w 133 2.718282 0
w -134 0.367879 0
w 134 2.718282 0
w -136 0.367879 0
w 136 2.718282 0
w -138 0.367879 0
w 138 2.718282 0
w -139 0.367879 0
w 139 2.718282 0
w -140 0.367879 0
w 140 2.718282 0
w -141 0.367879 0
w 141 2.718282 0
w -143 0.367879 0
w 143 2.718282 0
w -144 0.367879 0
w 144 2.718282 0
w -147 0.367879 0
w 147 2.718282 0
w -150 0.367879 0
w 150 2.718282 0
w -152 0.367879 0
w 152 2.718282 0
w -155 0.367879 0
w 155 2.718282 0
w -159 0.367879 0
w 159 2.718282 0
w -160 0.367879 0
w 160 2.718282 0
w -162 0.367879 0
w 162 2.718282 0
w -165 0.367879 0
w 165 2.718282 0
w -168 0.367879 0
w 168 2.718282 0
2 1 62 0
2 -1 -62 0
-2 1 -62 0
-2 -1 62 0
3 1 102 0
3 -1 -102 0
-3 1 -102 0
-3 -1 102 0
4 1 105 0
4 -1 -105 0
-4 1 -105 0
-4 -1 105 0
5 1 142 0
5 -1 -142 0
-5 1 -142 0
-5 -1 142 0
7 6 105 0
7 -6 -105 0
-7 6 -105 0
-7 -6 105 0
8 6 153 0
8 -6 -153 0
-8 6 -153 0
-8 -6 153 0
9 6 154 0
9 -6 -154 0
-9 6 -154 0
-9 -6 154 0
10 6 161 0
10 -6 -161 0
-10 6 -161 0
-10 -6 161 0
11 6 164 0
11 -6 -164 0
-11 6 -164 0
-11 -6 164 0
13 12 21 0
13 -12 -21 0
-13 12 -21 0
-13 -12 21 0
14 12 28 0
14 -12 -28 0
-14 12 -28 0
-14 -12 28 0
15 12 62 0
15 -12 -62 0
-15 12 -62 0
-15 -12 62 0
16 12 66 0
16 -12 -66 0
-16 12 -66 0
-16 -12 66 0
17 12 117 0
17 -12 -117 0
-17 12 -117 0
-17 -12 117 0
18 12 119 0
18 -12 -119 0
-18 12 -119 0
-18 -12 119 0
19 12 130 0
19 -12 -130 0
-19 12 -130 0
-19 -12 130 0
20 12 166 0
20 -12 -166 0
-20 12 -166 0
-20 -12 166 0
22 21 50 0
22 -21 -50 0
-22 21 -50 0
-22 -21 50 0
23 21 58 0
23 -21 -58 0
-23 21 -58 0
-23 -21 58 0
24 21 102 0
24 -21 -102 0
-24 21 -102 0
-24 -21 102 0
25 21 142 0
25 -21 -142 0
-25 21 -142 0
-25 -21 142 0
26 21 145 0
26 -21 -145 0
-26 21 -145 0
-26 -21 145 0
27 21 163 0
27 -21 -163 0
-27 21 -163 0
-27 -21 163 0
29 28 35 0
29 -28 -35 0
-29 28 -35 0
-29 -28 35 0
30 28 105 0
30 -28 -105 0
-30 28 -105 0
-30 -28 105 0
31 28 113 0
31 -28 -113 0
-31 28 -113 0
-31 -28 113 0
32 28 142 0
32 -28 -142 0
-32 28 -142 0
-32 -28 142 0
33 28 145 0
33 -28 -145 0
-33 28 -145 0
-33 -28 145 0
34 28 157 0
34 -28 -157 0
-34 28 -157 0
-34 -28 157 0
36 35 105 0
36 -35 -105 0
-36 35 -105 0
-36 -35 105 0
37 35 129 0
37 -35 -129 0
-37 35 -129 0
-37 -35 129 0
38 35 156 0
38 -35 -156 0
-38 35 -156 0
-38 -35 156 0
39 35 167 0
39 -35 -167 0
-39 35 -167 0
-39 -35 167 0
40 35 169 0
40 -35 -169 0
-40 35 -169 0
-40 -35 169 0
42 41 88 0
42 -41 -88 0
-42 41 -88 0
-42 -41 88 0
43 41 129 0
43 -41 -129 0
-43 41 -129 0
-43 -41 129 0
44 41 146 0
44 -41 -146 0
-44 41 -146 0
-44 -41 146 0
45 41 158 0
45 -41 -158 0
-45 41 -158 0
-45 -41 158 0
47 46 88 0
47 -46 -88 0
-47 46 -88 0
-47 -46 88 0
48 46 117 0
48 -46 -117 0
-48 46 -117 0
-48 -46 117 0
49 46 132 0
49 -46 -132 0
-49 46 -132 0
-49 -46 132 0
51 50 66 0
51 -50 -66 0
-51 50 -66 0
-51 -50 66 0
52 50 70 0
52 -50 -70 0
-52 50 -70 0
-52 -50 70 0
53 50 117 0
53 -50 -117 0
-53 50 -117 0
-53 -50 117 0
54 50 124 0
54 -50 -124 0
-54 50 -124 0
-54 -50 124 0
55 50 137 0
55 -50 -137 0
-55 50 -137 0
-55 -50 137 0
56 50 149 0
56 -50 -149 0
-56 50 -149 0
-56 -50 149 0
57 50 166 0
57 -50 -166 0
-57 50 -166 0
-57 -50 166 0
59 58 93 0
59 -58 -93 0
-59 58 -93 0
-59 -58 93 0
60 58 137 0
60 -58 -137 0
-60 58 -137 0
-60 -58 137 0
61 58 153 0
61 -58 -153 0
-61 58 -153 0
-61 -58 153 0
63 62 88 0
63 -62 -88 0
-63 62 -88 0
-63 -62 88 0
64 62 117 0
64 -62 -117 0
-64 62 -117 0
-64 -62 117 0
65 62 154 0
65 -62 -154 0
-65 62 -154 0
-65 -62 154 0
67 66 113 0
67 -66 -113 0
-67 66 -113 0
-67 -66 113 0
68 66 130 0
68 -66 -130 0
-68 66 -130 0
-68 -66 130 0
69 66 157 0
69 -66 -157 0
-69 66 -157 0
-69 -66 157 0
71 70 117 0
71 -70 -117 0
-71 70 -117 0
-71 -70 117 0
72 70 166 0
72 -70 -166 0
-72 70 -166 0
-72 -70 166 0
73 70 167 0
73 -70 -167 0
-73 70 -167 0
-73 -70 167 0
75 74 129 0
75 -74 -129 0
-75 74 -129 0
-75 -74 129 0
76 74 149 0
76 -74 -149 0
-76 74 -149 0
-76 -74 149 0
78 77 98 0
78 -77 -98 0
-78 77 -98 0
-78 -77 98 0
79 77 105 0
79 -77 -105 0
-79 77 -105 0
-79 -77 105 0
80 77 129 0
80 -77 -129 0
-80 77 -129 0
-80 -77 129 0
81 77 142 0
81 -77 -142 0
-81 77 -142 0
-81 -77 142 0
82 77 154 0
82 -77 -154 0
-82 77 -154 0
-82 -77 154 0
84 83 142 0
84 -83 -142 0
-84 83 -142 0
-84 -83 142 0
85 83 148 0
85 -83 -148 0
-85 83 -148 0
-85 -83 148 0
86 83 167 0
86 -83 -167 0
-86 83 -167 0
-86 -83 167 0
87 83 169 0
87 -83 -169 0
-87 83 -169 0
-87 -83 169 0
89 88 93 0
89 -88 -93 0
-89 88 -93 0
-89 -88 93 0
90 88 113 0
90 -88 -113 0
-90 88 -113 0
-90 -88 113 0
91 88 151 0
91 -88 -151 0
-91 88 -151 0
-91 -88 151 0
92 88 167 0
92 -88 -167 0
-92 88 -167 0
-92 -88 167 0
94 93 124 0
94 -93 -124 0
-94 93 -124 0
-94 -93 124 0
95 93 154 0
95 -93 -154 0
-95 93 -154 0
-95 -93 154 0
96 93 158 0
96 -93 -158 0
-96 93 -158 0
-96 -93 158 0
97 93 167 0
97 -93 -167 0
-97 93 -167 0
-97 -93 167 0
99 98 149 0
99 -98 -149 0
-99 98 -149 0
-99 -98 149 0
100 98 164 0
100 -98 -164 0
-100 98 -164 0
-100 -98 164 0
101 98 169 0
101 -98 -169 0
-101 98 -169 0
-101 -98 169 0
103 102 137 0
103 -102 -137 0
-103 102 -137 0
-103 -102 137 0
104 102 167 0
104 -102 -167 0
-104 102 -167 0
-104 -102 167 0
106 105 132 0
106 -105 -132 0
-106 105 -132 0
-106 -105 132 0
107 105 161 0
107 -105 -161 0
-107 105 -161 0
-107 -105 161 0
108 105 164 0
108 -105 -164 0
-108 105 -164 0
-108 -105 164 0
109 105 166 0
109 -105 -166 0
-109 105 -166 0
-109 -105 166 0
111 110 124 0
111 -110 -124 0
-111 110 -124 0
-111 -110 124 0
112 110 151 0
112 -110 -151 0
-112 110 -151 0
-112 -110 151 0
114 113 137 0
114 -113 -137 0
-114 113 -137 0
-114 -113 137 0
115 113 142 0
115 -113 -142 0
-115 113 -142 0
-115 -113 142 0
116 113 148 0
116 -113 -148 0
-116 113 -148 0
-116 -113 148 0
118 117 164 0
118 -117 -164 0
-118 117 -164 0
-118 -117 164 0
120 119 145 0
120 -119 -145 0
-120 119 -145 0
-120 -119 145 0
121 119 154 0
121 -119 -154 0
-121 119 -154 0
-121 -119 154 0
122 119 169 0
122 -119 -169 0
-122 119 -169 0
-122 -119 169 0
125 124 129 0
125 -124 -129 0
-125 124 -129 0
-125 -124 129 0
126 124 142 0
126 -124 -142 0
-126 124 -142 0
-126 -124 142 0
127 124 149 0
127 -124 -149 0
-127 124 -149 0
-127 -124 149 0
128 124 156 0
128 -124 -156 0
-128 124 -156 0
-128 -124 156 0
131 130 137 0
131 -130 -137 0
-131 130 -137 0
-131 -130 137 0
133 132 156 0
133 -132 -156 0
-133 132 -156 0
-133 -132 156 0
134 132 157 0
134 -132 -157 0
-134 132 -157 0
-134 -132 157 0
136 135 148 0
136 -135 -148 0
-136 135 -148 0
-136 -135 148 0
138 137 142 0
138 -137 -142 0
-138 137 -142 0
-138 -137 142 0
139 137 149 0
139 -137 -149 0
-139 137 -149 0
-139 -137 149 0
140 137 164 0
140 -137 -164 0
-140 137 -164 0
-140 -137 164 0
141 137 167 0
141 -137 -167 0
-141 137 -167 0
-141 -137 167 0
143 142 146 0
143 -142 -146 0
-143 142 -146 0
-143 -142 146 0
144 142 148 0
144 -142 -148 0
-144 142 -148 0
-144 -142 148 0
147 146 153 0
147 -146 -153 0
-147 146 -153 0
-147 -146 153 0
150 149 161 0
150 -149 -161 0
-150 149 -161 0
-150 -149 161 0
152 151 163 0
152 -151 -163 0
-152 151 -163 0
-152 -151 163 0
155 154 166 0
155 -154 -166 0
-155 154 -166 0
-155 -154 166 0
159 158 166 0
159 -158 -166 0
-159 158 -166 0
-159 -158 166 0
160 158 169 0
160 -158 -169 0
-160 158 -169 0
-160 -158 169 0
162 161 163 0
162 -161 -163 0
-162 161 -163 0
-162 -161 163 0
165 164 169 0
165 -164 -169 0
-165 164 -169 0
-165 -164 169 0
168 167 169 0
168 -167 -169 0
-168 167 -169 0
-168 -167 169 0
