benchmarks/ising_models/Random/J=1/50nodes_5deg_random_graph
ISING
50
2 2 2 2 2 2 2 2 2 2 2 2 2 2 2 2 2 2 2 2 2 2 2 2 2 2 2 2 2 2 2 2 2 2 2 2 2 2 2 2 2 2 2 2 2 2 2 2 2 2
0 120 1 1
2 0 10
2 0 19
2 0 20
2 0 32
2 1 20
2 1 38
2 1 39
2 1 43
2 1 45
2 2 3
2 2 4
2 2 10
2 2 11
2 2 23
2 2 24
2 2 28
2 2 46
2 3 8
2 3 9
2 3 19
2 3 32
2 3 33
2 3 44
2 4 5
2 4 20
2 4 22
2 4 32
2 4 33
2 4 41
2 5 20
2 5 27
2 5 40
2 5 47
2 5 48
2 6 16
2 6 27
2 6 34
2 6 42
2 7 16
2 7 23
2 7 29
2 8 11
2 8 12
2 8 23
2 8 26
2 8 31
2 8 36
2 8 46
2 9 17
2 9 31
2 9 38
2 10 16
2 10 23
2 10 39
2 11 22
2 11 28
2 11 41
2 12 23
2 12 46
2 12 47
2 13 27
2 13 36
2 14 18
2 14 20
2 14 27
2 14 32
2 14 39
2 15 32
2 15 35
2 15 47
2 15 48
2 16 17
2 16 22
2 16 37
2 16 47
2 17 26
2 17 39
2 17 42
2 17 47
2 18 36
2 18 45
2 18 48
2 19 31
2 19 47
2 20 29
2 20 43
2 20 45
2 20 46
2 21 26
2 21 37
2 22 31
2 22 32
2 22 35
2 23 45
2 24 33
2 24 39
2 24 48
2 26 27
2 26 32
2 26 36
2 26 40
2 28 31
2 29 40
2 29 41
2 30 35
2 31 32
2 31 36
2 31 45
2 31 47
2 32 34
2 32 35
2 34 38
2 36 43
2 37 44
2 39 46
2 42 46
2 42 48
2 43 44
2 45 48
2 47 48

4
 1.0 -1.0
 -1.0 1.0
4
 1.0 -1.0
 -1.0 1.0
4
 1.0 -1.0
 -1.0 1.0
4
 1.0 -1.0
 -1.0 1.0
4
 1.0 -1.0
 -1.0 1.0
4
 1.0 -1.0
 -1.0 1.0
4
 1.0 -1.0
 -1.0 1.0
4
 1.0 -1.0
 -1.0 1.0
4
 1.0 -1.0
 -1.0 1.0
4
 1.0 -1.0
 -1.0 1.0
4
 1.0 -1.0
 -1.0 1.0
4
 1.0 -1.0
 -1.0 1.0
4
 1.0 -1.0
 -1.0 1.0
4
 1.0 -1.0
 -1.0 1.0
4
 1.0 -1.0
 -1.0 1.0
4
 1.0 -1.0
 -1.0 1.0
4
 1.0 -1.0
 -1.0 1.0
4
 1.0 -1.0
 -1.0 1.0
4
 1.0 -1.0
 -1.0 1.0
4
 1.0 -1.0
 -1.0 1.0
4
 1.0 -1.0
 -1.0 1.0
4
 1.0 -1.0
 -1.0 1.0
4
 1.0 -1.0
 -1.0 1.0
4
 1.0 -1.0
 -1.0 1.0
4
 1.0 -1.0
 -1.0 1.0
4
 1.0 -1.0
 -1.0 1.0
4
 1.0 -1.0
 -1.0 1.0
4
 1.0 -1.0
 -1.0 1.0
4
 1.0 -1.0
 -1.0 1.0
4
 1.0 -1.0
 -1.0 1.0
4
 1.0 -1.0
 -1.0 1.0
4
 1.0 -1.0
 -1.0 1.0
4
 1.0 -1.0
 -1.0 1.0
4
 1.0 -1.0
 -1.0 1.0
4
 1.0 -1.0
 -1.0 1.0
4
 1.0 -1.0
 -1.0 1.0
4
 1.0 -1.0
 -1.0 1.0
4
 1.0 -1.0
 -1.0 1.0
4
 1.0 -1.0
 -1.0 1.0
4
 1.0 -1.0
 -1.0 1.0
4
 1.0 -1.0
 -1.0 1.0
4
 1.0 -1.0
 -1.0 1.0
4
 1.0 -1.0
 -1.0 1.0
4
 1.0 -1.0
 -1.0 1.0
4
 1.0 -1.0
 -1.0 1.0
4
 1.0 -1.0
 -1.0 1.0
4
 1.0 -1.0
 -1.0 1.0
4
 1.0 -1.0
 -1.0 1.0
4
 1.0 -1.0
 -1.0 1.0
4
 1.0 -1.0
 -1.0 1.0
4
 1.0 -1.0
 -1.0 1.0
4
 1.0 -1.0
 -1.0 1.0
4
 1.0 -1.0
 -1.0 1.0
4
 1.0 -1.0
 -1.0 1.0
4
 1.0 -1.0
 -1.0 1.0
4
 1.0 -1.0
 -1.0 1.0
4
 1.0 -1.0
 -1.0 1.0
4
 1.0 -1.0
 -1.0 1.0
4
 1.0 -1.0
 -1.0 1.0
4
 1.0 -1.0
 -1.0 1.0
4
 1.0 -1.0
 -1.0 1.0
4
 1.0 -1.0
 -1.0 1.0
4
 1.0 -1.0
 -1.0 1.0
4
 1.0 -1.0
 -1.0 1.0
4
 1.0 -1.0
 -1.0 1.0
4
 1.0 -1.0
 -1.0 1.0
4
 1.0 -1.0
 -1.0 1.0
4
 1.0 -1.0
 -1.0 1.0
4
 1.0 -1.0
 -1.0 1.0
4
 1.0 -1.0
 -1.0 1.0
4
 1.0 -1.0
 -1.0 1.0
4
 1.0 -1.0
 -1.0 1.0
4
 1.0 -1.0
 -1.0 1.0
4
 1.0 -1.0
 -1.0 1.0
4
 1.0 -1.0
 -1.0 1.0
4
 1.0 -1.0
 -1.0 1.0
4
 1.0 -1.0
 -1.0 1.0
4
 1.0 -1.0
 -1.0 1.0
4
 1.0 -1.0
 -1.0 1.0
4
 1.0 -1.0
 -1.0 1.0
4
 1.0 -1.0
 -1.0 1.0
4
 1.0 -1.0
 -1.0 1.0
4
 1.0 -1.0
 -1.0 1.0
4
 1.0 -1.0
 -1.0 1.0
4
 1.0 -1.0
 -1.0 1.0
4
 1.0 -1.0
 -1.0 1.0
4
 1.0 -1.0
 -1.0 1.0
4
 1.0 -1.0
 -1.0 1.0
4
 1.0 -1.0
 -1.0 1.0
4
 1.0 -1.0
 -1.0 1.0
4
 1.0 -1.0
 -1.0 1.0
4
 1.0 -1.0
 -1.0 1.0
4
 1.0 -1.0
 -1.0 1.0
4
 1.0 -1.0
 -1.0 1.0
4
 1.0 -1.0
 -1.0 1.0
4
 1.0 -1.0
 -1.0 1.0
4
 1.0 -1.0
 -1.0 1.0
4
 1.0 -1.0
 -1.0 1.0
4
 1.0 -1.0
 -1.0 1.0
4
 1.0 -1.0
 -1.0 1.0
4
 1.0 -1.0
 -1.0 1.0
4
 1.0 -1.0
 -1.0 1.0
4
 1.0 -1.0
 -1.0 1.0
4
 1.0 -1.0
 -1.0 1.0
4
 1.0 -1.0
 -1.0 1.0
4
 1.0 -1.0
 -1.0 1.0
4
 1.0 -1.0
 -1.0 1.0
4
 1.0 -1.0
 -1.0 1.0
4
 1.0 -1.0
 -1.0 1.0
4
 1.0 -1.0
 -1.0 1.0
4
 1.0 -1.0
 -1.0 1.0
4
 1.0 -1.0
 -1.0 1.0
4
 1.0 -1.0
 -1.0 1.0
4
 1.0 -1.0
 -1.0 1.0
4
 1.0 -1.0
 -1.0 1.0
4
 1.0 -1.0
 -1.0 1.0
4
 1.0 -1.0
 -1.0 1.0
4
 1.0 -1.0
 -1.0 1.0
4
 1.0 -1.0
 -1.0 1.0
4
 1.0 -1.0
 -1.0 1.0
